c User generated cnf file
p cnf 13 44
4 -5 1 0 
5 6 -5 0 
13 -7 10 0 
10 -13 12 0 
4 11 -1 0 
8 -12 4 0 
7 -9 11 0 
13 1 -10 0 
2 12 -10 0 
2 10 -5 0 
10 -6 9 0 
5 9 -11 0 
2 -3 6 0 
3 -6 5 0 
6 3 -4 0 
3 -2 5 0 
1 8 -8 0 
12 -12 6 0 
3 2 -2 0 
7 12 -13 0 
10 13 -7 0 
3 1 -11 0 
4 -4 9 0 
2 -9 8 0 
1 -9 6 0 
5 9 -3 0 
3 13 -11 0 
12 -11 4 0 
11 12 -8 0 
5 1 -8 0 
5 4 -8 0 
4 5 -4 0 
2 10 -13 0 
7 -11 9 0 
2 9 -2 0 
8 5 -7 0 
12 -5 8 0 
7 -3 10 0 
4 -10 4 0 
3 -9 6 0 
13 -5 13 0 
12 -6 2 0 
12 7 -5 0 
12 10 -11 0 
